n_res = 4;
rc = [ 7, 15, 13, 13 ];
n_tasks = 30;
d = [ 3, 7, 5, 2, 3, 3, 8, 3, 2, 2, 1, 4, 5, 7, 6, 8, 1, 2, 6, 6, 9, 5, 5, 3, 6, 9, 10, 3, 6, 3 ];
rr = [| 0, 0, 0, 0, 0, 0, 0, 0, 0, 4, 0, 0, 0, 0, 0, 0, 0, 0, 0, 0, 0, 0, 0, 7, 0, 0, 0, 0, 0, 0
      | 0, 0, 0, 10, 0, 0, 0, 0, 0, 0, 0, 6, 3, 0, 0, 0, 0, 0, 0, 0, 10, 1, 0, 0, 5, 0, 0, 0, 0, 5
      | 0, 5, 0, 0, 8, 0, 0, 2, 0, 0, 0, 0, 0, 0, 0, 5, 10, 0, 2, 1, 0, 0, 0, 0, 0, 0, 10, 6, 6, 0
      | 10, 0, 6, 0, 0, 10, 1, 0, 6, 0, 9, 0, 0, 7, 3, 0, 0, 3, 0, 0, 0, 0, 6, 0, 0, 10, 0, 0, 0, 0 |];
suc = [ { 2 }, 
        { 1 }, 
        { 4 }, 
        { 3 }, 
        { 6 }, 
        { 5 }, 
        { 8 }, 
        { 7 }, 
        { 10 }, 
        { 9 }, 
        { 12 }, 
        { 11 }, 
        { 14 }, 
        { 13 }, 
        { 16 }, 
        { 15 }, 
        { 18 }, 
        { 17 }, 
        { 20 }, 
        { 19 }, 
        { 22 }, 
        { 21 }, 
        { 24 }, 
        { 23 }, 
        { 26 }, 
        { 25 }, 
        { 28 }, 
        { 27 }, 
        { 30 }, 
        { 29 }]; 
